32	0

0	1	2
10	1	3
3	2	4	5
7	2	6	7
9	2	6	7
6	1	9
4	1	8
4	1	9
3	1	10
5	1	11
6	1	12
7	1	13
1	2	14	15
9	1	16
6	1	16
3	2	17	18
6	1	19
2	1	19
9	1	20
5	1	21
6	1	22
6	1	23
8	2	24	25
6	1	26
10	1	26
7	2	27	28
9	1	29
8	1	29
8	2	30	31
4	1	32
5	1	32
0	0
